10
99
0 1 12.4 50.4
0 2 6.9 13.5
0 3 4.3 27.5
0 4 9.9 12
0 5 12.3 13
0 6 1.1 8.9
0 7 9.6 67.8
0 8 4.5 13.2
0 9 3.2 9.6
1 2 4.7 4.9
1 3 0.9 4.5
1 4 4.3 17.8
1 5 3.2 6.6
1 6 4.5 9.9
1 7 2.5 7.5
1 8 2.2 3.9
1 9 12 6.2
2 3 7.6 19.7
2 4 6.5 9.9
2 5 4.7 4.8
2 6 2 1
2 7 9 17
2 8 9.1 10
2 9 7.1 4.8
3 4 7.8 65.7
3 5 3.2 9.8
3 6 6.2 10.2
3 7 7.1 8.4
3 8 5.5 14
3 9 1.1 2.4
4 5 7.5 8
4 6 7.5 8.9
4 7 3.1 6.5
4 8 9.9 42.4
4 9 2.7 5.4
5 6 1.4 5.4
5 7 3.6 9.8
5 8 9.1 36.9
5 9 2.2 1.9
6 7 4.9 12.3
6 8 0.1 9.9
6 9 2.2 12.2
7 8 1.8 1.3
7 9 12.3 87.4
8 9 3.1 3.2
